nzones = 0;
nturb = 70;

R = 38.5;

w = 3000;
h = 3000;

zx = [];
zy = [];
zwidth = [];
zheight = [];

init_x = [ 0, 0, 0, 0, 0, 0, 0, 375, 375, 375, 375, 375, 375, 375, 375, 750, 750, 750, 750, 750, 750, 750, 750, 1125, 1125, 1125, 1125, 1125, 1125, 1125, 1125, 1500, 1500, 1500, 1500, 1500, 1500, 1500, 1875, 1875, 1875, 1875, 1875, 1875, 1875, 1875, 2250, 2250, 2250, 2250, 2250, 2250, 2250, 2250, 2625, 2625, 2625, 2625, 2625, 2625, 2625, 2625, 3000, 3000, 3000, 3000, 3000, 3000, 3000, 3000 ];
init_y = [ 0, 857, 1286, 1714, 2143, 2571, 3000, 0, 429, 857, 1286, 1714, 2143, 2571, 3000, 0, 429, 857, 1286, 1714, 2143, 2571, 3000, 0, 429, 857, 1286, 1714, 2143, 2571, 3000, 0, 429, 857, 1286, 2143, 2571, 3000, 0, 429, 857, 1286, 1714, 2143, 2571, 3000, 0, 429, 857, 1286, 1714, 2143, 2571, 3000, 0, 429, 857, 1286, 1714, 2143, 2571, 3000, 0, 429, 857, 1286, 1714, 2143, 2571, 3000 ];
